186
0 146 99 148 171 137 45 70 138 35 
2 107 176 53 65 66 91 41 18 50 
86 81 76 84 124 131 158 30 159 135 
110 172 132 7 130 142 147 174 144 22 
126 72 179 25 28 153 12 11 95 19 
34 143 177 59 52 112 161 182 121 33 
55 27 79 156 88 62 116 108 115 48 
154 106 15 60 180 5 29 139 141 23 
170 69 140 82 26 92 168 164 31 117 
4 105 155 89 1 87 13 61 163 181 
9 166 165 93 56 167 123 119 173 120 
67 114 104 109 78 152 111 77 20 100 
83 10 101 68 129 151 6 127 43 145 
14 125 16 80 44 183 149 90 96 21 
175 32 42 47 136 49 103 133 3 169 
128 57 185 58 38 94 37 162 73 113 
97 54 17 178 98 40 63 118 160 150 
184 71 36 8 85 64 157 46 75 39 
134 102 51 24 74 122 
